NAME
* Written by MOSEK version 6.0.0.137
OBJSENSE
    MIN
ROWS
 N  obj
 E  c1
 E  c2
 E  c3
 E  c4
 E  c5
 E  c6
 E  c7
 E  c8
 E  c9
 E  c10
 E  c11
 E  c12
 E  c13
 E  c14
 E  c15
 E  c16
 E  c17
COLUMNS
    x1        obj       1.18e+02
    x1        c1        1
    x1        c2        6
    x1        c3        5
    x1        c16       6
    x1        c17       3
    x2        obj       65
    x2        c2        4
    x2        c3        8
    x2        c17       6
    x3        obj       49
    x3        c2        4
    x3        c3        4
    x3        c17       1
    x4        obj       68
    x4        c2        5
    x4        c3        3
    x4        c17       5
    x5        obj       1.55e+02
    x5        c4        1
    x5        c5        8
    x5        c6        4
    x5        c16       9
    x5        c17       4
    x6        obj       62
    x6        c5        3
    x6        c6        5
    x6        c17       3
    x7        obj       58
    x7        c5        2
    x7        c6        6
    x7        c17       2
    x8        obj       1.03e+02
    x8        c5        7
    x8        c6        6
    x8        c17       5
    x9        obj       1.1e+02
    x9        c7        1
    x9        c8        2
    x9        c9        5
    x9        c16       6
    x9        c17       4
    x10       obj       1.06e+02
    x10       c8        7
    x10       c9        7
    x10       c17       3
    x11       obj       87
    x11       c8        8
    x11       c9        4
    x11       c17       3
    x12       obj       1.53e+02
    x12       c8        11
    x12       c9        10
    x12       c17       5
    x13       obj       1.21e+02
    x13       c10       1
    x13       c11       5
    x13       c12       7
    x13       c16       7
    x13       c17       1
    x14       obj       42
    x14       c11       1
    x14       c12       4
    x14       c17       5
    x15       obj       63
    x15       c11       4
    x15       c12       3
    x15       c17       7
    x16       obj       77
    x16       c11       5
    x16       c12       7
    x16       c17       5
    x17       obj       93
    x17       c13       1
    x17       c14       5
    x17       c15       5
    x17       c16       4
    x17       c17       4
    x18       obj       52
    x18       c14       6
    x18       c15       2
    x18       c17       4
    x19       obj       52
    x19       c14       5
    x19       c15       4
    x19       c17       2
    x20       obj       58
    x20       c14       4
    x20       c15       4
    x20       c17       6
    x21       obj       0
RHS
    rhs       c1        13
    rhs       c2        1.6e+02
    rhs       c3        1.39e+02
    rhs       c4        11
    rhs       c5        1.47e+02
    rhs       c6        1.41e+02
    rhs       c7        9
    rhs       c8        1.33e+02
    rhs       c9        1.37e+02
    rhs       c10       6
    rhs       c11       64
    rhs       c12       87
    rhs       c13       12
    rhs       c14       1.47e+02
    rhs       c15       1.18e+02
    rhs       c16       3.21e+02
    rhs       c17       4.52e+02
RANGES
BOUNDS
 LI bound     x1        0
 LI bound     x2        0
 LI bound     x3        0
 LI bound     x4        0
 LI bound     x5        0
 LI bound     x6        0
 LI bound     x7        0
 LI bound     x8        0
 LI bound     x9        0
 LI bound     x10       0
 LI bound     x11       0
 LI bound     x12       0
 LI bound     x13       0
 LI bound     x14       0
 LI bound     x15       0
 LI bound     x16       0
 LI bound     x17       0
 LI bound     x18       0
 LI bound     x19       0
 LI bound     x20       0
CSECTION      k1        0              QUAD
    x1
    x2
    x3
    x4
CSECTION      k2        0              QUAD
    x5
    x6
    x7
    x8
CSECTION      k3        0              QUAD
    x9
    x10
    x11
    x12
CSECTION      k4        0              QUAD
    x13
    x14
    x15
    x16
CSECTION      k5        0              QUAD
    x17
    x18
    x19
    x20
ENDATA
